% Logging successfully configured
%%%mzn-stat: initTime=0.070192884
%%%mzn-stat: objective=520
%%%mzn-stat: nodes=19709
%%%mzn-stat: restarts=0
%%%mzn-stat: peakDepth=3445
%%%mzn-stat: solveTime=31.706261738
%%%mzn-stat: variables=4390
%%%mzn-stat: propagators=3889
%%%mzn-stat: failures=10609
%%%mzn-stat: propagations=353048
%%%mzn-stat: nogoods=10609
%%%mzn-stat: numAtomicConstraintsPropagated=0
%%%mzn-stat: allDifferentNumber1PropagationsTotal=52617
%%%mzn-stat: allDifferentNumber1PropagationsThatFoundConflict=317
%%%mzn-stat: allDifferentNumber1PropagationsThatPruned=31528
%%%mzn-stat: allDifferentNumber1TotalValuesPruned=133401
%%%mzn-stat: allDifferentNumber1TotalHallSetSizeConflict=3040
%%%mzn-stat: allDifferentNumber1NumberOfConflicts=317
%%%mzn-stat: allDifferentNumber1MaxHallSetSizeConflict=23
%%%mzn-stat: allDifferentNumber1TotalPruningHallSetSize=531675
%%%mzn-stat: allDifferentNumber1NumberOfPruningExplanations=133401
%%%mzn-stat: allDifferentNumber1MaxPruningHallSetSize=40
%%%mzn-stat: allDifferentNumber1TotalFixedEdgesAtConflict=41877
%%%mzn-stat: allDifferentNumber1TotalVarsInvolvedInPruning=109201
%%%mzn-stat: allDifferentNumber1MaxValuesPrunedFromSingleVar=5
%%%mzn-stat: allDifferentNumber1TotalSccSizeAtPruning=244727
%%%mzn-stat: allDifferentNumber1NumberOfSccPruningCalls=31528
%%%mzn-stat: circuitNumber2PropagationsThatFoundConflict=8719
%%%mzn-stat: circuitNumber2TotalFixedEdgesAtConflict=1245502
%%%mzn-stat: circuitNumber2NumberOfConflicts=8719
%%%mzn-stat: circuitNumber2PropagationsThatPruned=3315
%%%mzn-stat: circuitNumber2PropagationsTotal=30441
%%%mzn-stat: AverageConflictSize=97.8899990574041
%%%mzn-stat: NumUnitNogoodsLearned=0
%%%mzn-stat: AverageLearnedNogoodLength=113.34367046847017
%%%mzn-stat: AverageBacktrackAmount=0
%%%mzn-stat: AverageLbd=98.67734942030351
%%%mzn-stat: 2AutonomousSearchNumBackupCalled=3314
%%%mzn-stat: 2AutonomousSearchNumPredicatesRemoved=0
%%%mzn-stat: 2AutonomousSearchNumCalls=3315
%%%mzn-stat: 2AutonomousSearchNumPredicatesAdded=2583
%%%mzn-stat: 2AutonomousSearchAverageSizeOfHeap=0.779185520361991
%%%mzn-stat: 2AutonomousSearchNumAssignedPredicatesEncountered=2583
%%%mzn-stat-end
maxleg = 520;
succ = array1d(1..150,[3, 8, 6, 1, 4, 22, 19, 10, 16, 14, 12, 34, 27, 15, 28, 20, 18, 30, 13, 21, 25, 36, 9, 5, 26, 40, 33, 24, 2, 48, 29, 7, 51, 38, 32, 17, 31, 49, 61, 39, 42, 46, 35, 23, 37, 47, 44, 41, 50, 56, 63, 55, 57, 11, 92, 69, 52, 54, 43, 58, 73, 65, 76, 59, 70, 67, 64, 53, 88, 71, 68, 80, 75, 62, 81, 60, 93, 74, 78, 83, 82, 87, 89, 45, 96, 66, 90, 95, 97, 99, 86, 77, 115, 84, 100, 104, 85, 79, 111, 106, 116, 91, 102, 110, 72, 114, 105, 113, 103, 122, 109, 128, 118, 131, 101, 129, 121, 125, 112, 98, 130, 124, 108, 136, 137, 120, 107, 126, 132, 149, 134, 147, 117, 139, 133, 142, 138, 143, 123, 119, 144, 145, 146, 148, 135, 127, 94, 140, 150, 141]);
% time elapsed: 36.91 s
----------
%%%mzn-stat: initTime=0.070192884
%%%mzn-stat: objective=378
%%%mzn-stat: nodes=269020
%%%mzn-stat: restarts=0
%%%mzn-stat: peakDepth=3445
%%%mzn-stat: solveTime=678.506883821
%%%mzn-stat: variables=4390
%%%mzn-stat: propagators=3889
%%%mzn-stat: failures=160646
%%%mzn-stat: propagations=5651926
%%%mzn-stat: nogoods=160646
%%%mzn-stat: numAtomicConstraintsPropagated=0
%%%mzn-stat: allDifferentNumber1PropagationsTotal=843181
%%%mzn-stat: allDifferentNumber1PropagationsThatFoundConflict=5450
%%%mzn-stat: allDifferentNumber1PropagationsThatPruned=502919
%%%mzn-stat: allDifferentNumber1TotalValuesPruned=2072242
%%%mzn-stat: allDifferentNumber1TotalHallSetSizeConflict=51742
%%%mzn-stat: allDifferentNumber1NumberOfConflicts=5450
%%%mzn-stat: allDifferentNumber1MaxHallSetSizeConflict=25
%%%mzn-stat: allDifferentNumber1TotalPruningHallSetSize=8279643
%%%mzn-stat: allDifferentNumber1NumberOfPruningExplanations=2072242
%%%mzn-stat: allDifferentNumber1MaxPruningHallSetSize=40
%%%mzn-stat: allDifferentNumber1TotalFixedEdgesAtConflict=695703
%%%mzn-stat: allDifferentNumber1TotalVarsInvolvedInPruning=1662933
%%%mzn-stat: allDifferentNumber1MaxValuesPrunedFromSingleVar=7
%%%mzn-stat: allDifferentNumber1TotalSccSizeAtPruning=3515046
%%%mzn-stat: allDifferentNumber1NumberOfSccPruningCalls=502919
%%%mzn-stat: circuitNumber2PropagationsThatFoundConflict=134200
%%%mzn-stat: circuitNumber2TotalFixedEdgesAtConflict=19140869
%%%mzn-stat: circuitNumber2NumberOfConflicts=134200
%%%mzn-stat: circuitNumber2PropagationsThatPruned=67241
%%%mzn-stat: circuitNumber2PropagationsTotal=490663
%%%mzn-stat: AverageConflictSize=98.77947785814773
%%%mzn-stat: NumUnitNogoodsLearned=0
%%%mzn-stat: AverageLearnedNogoodLength=113.12165880258456
%%%mzn-stat: AverageBacktrackAmount=0
%%%mzn-stat: AverageLbd=100.70995854238512
%%%mzn-stat: 2AutonomousSearchNumBackupCalled=6532
%%%mzn-stat: 2AutonomousSearchNumPredicatesRemoved=0
%%%mzn-stat: 2AutonomousSearchNumCalls=6534
%%%mzn-stat: 2AutonomousSearchNumPredicatesAdded=5534
%%%mzn-stat: 2AutonomousSearchAverageSizeOfHeap=0.85736149372513
%%%mzn-stat: 2AutonomousSearchNumAssignedPredicatesEncountered=5602
%%%mzn-stat-end
maxleg = 378;
succ = array1d(1..150,[3, 8, 6, 1, 4, 22, 19, 10, 16, 14, 12, 34, 27, 15, 28, 20, 18, 30, 13, 21, 25, 36, 9, 5, 26, 40, 33, 24, 2, 48, 29, 7, 51, 38, 32, 17, 31, 49, 61, 39, 42, 46, 35, 23, 37, 47, 44, 41, 50, 56, 63, 55, 57, 11, 92, 69, 52, 54, 43, 58, 73, 65, 76, 59, 70, 67, 64, 53, 88, 71, 68, 80, 75, 62, 81, 60, 93, 74, 78, 83, 82, 87, 89, 45, 96, 66, 90, 95, 97, 99, 86, 77, 115, 84, 100, 104, 85, 79, 111, 106, 116, 91, 102, 110, 72, 114, 105, 113, 103, 122, 123, 128, 118, 131, 101, 109, 121, 125, 112, 98, 130, 124, 129, 136, 137, 120, 107, 126, 135, 149, 134, 147, 117, 139, 133, 142, 138, 143, 132, 119, 144, 145, 146, 148, 94, 127, 108, 140, 150, 141]);
% time elapsed: 683.71 s
----------
%%%mzn-stat: initTime=0.070192884
%%%mzn-stat: objective=332
%%%mzn-stat: nodes=305886
%%%mzn-stat: restarts=0
%%%mzn-stat: peakDepth=3445
%%%mzn-stat: solveTime=782.093569919
%%%mzn-stat: variables=4390
%%%mzn-stat: propagators=3889
%%%mzn-stat: failures=177677
%%%mzn-stat: propagations=6234826
%%%mzn-stat: nogoods=177677
%%%mzn-stat: numAtomicConstraintsPropagated=0
%%%mzn-stat: allDifferentNumber1PropagationsTotal=940381
%%%mzn-stat: allDifferentNumber1PropagationsThatFoundConflict=5450
%%%mzn-stat: allDifferentNumber1PropagationsThatPruned=556610
%%%mzn-stat: allDifferentNumber1TotalValuesPruned=2228652
%%%mzn-stat: allDifferentNumber1TotalHallSetSizeConflict=51742
%%%mzn-stat: allDifferentNumber1NumberOfConflicts=5450
%%%mzn-stat: allDifferentNumber1MaxHallSetSizeConflict=25
%%%mzn-stat: allDifferentNumber1TotalPruningHallSetSize=8520909
%%%mzn-stat: allDifferentNumber1NumberOfPruningExplanations=2228652
%%%mzn-stat: allDifferentNumber1MaxPruningHallSetSize=40
%%%mzn-stat: allDifferentNumber1TotalFixedEdgesAtConflict=695703
%%%mzn-stat: allDifferentNumber1TotalVarsInvolvedInPruning=1813121
%%%mzn-stat: allDifferentNumber1MaxValuesPrunedFromSingleVar=7
%%%mzn-stat: allDifferentNumber1TotalSccSizeAtPruning=3629155
%%%mzn-stat: allDifferentNumber1NumberOfSccPruningCalls=556610
%%%mzn-stat: circuitNumber2PropagationsThatFoundConflict=151230
%%%mzn-stat: circuitNumber2TotalFixedEdgesAtConflict=21609009
%%%mzn-stat: circuitNumber2NumberOfConflicts=151230
%%%mzn-stat: circuitNumber2PropagationsThatPruned=76376
%%%mzn-stat: circuitNumber2PropagationsTotal=551077
%%%mzn-stat: AverageConflictSize=102.70604523939508
%%%mzn-stat: NumUnitNogoodsLearned=0
%%%mzn-stat: AverageLearnedNogoodLength=115.09942761302814
%%%mzn-stat: AverageBacktrackAmount=0
%%%mzn-stat: AverageLbd=102.81616641433612
%%%mzn-stat: 2AutonomousSearchNumBackupCalled=9802
%%%mzn-stat: 2AutonomousSearchNumPredicatesRemoved=0
%%%mzn-stat: 2AutonomousSearchNumCalls=9805
%%%mzn-stat: 2AutonomousSearchNumPredicatesAdded=6587
%%%mzn-stat: 2AutonomousSearchAverageSizeOfHeap=0.8845486996430393
%%%mzn-stat: 2AutonomousSearchNumAssignedPredicatesEncountered=8673
%%%mzn-stat-end
maxleg = 332;
succ = array1d(1..150,[3, 8, 6, 1, 4, 22, 19, 10, 16, 14, 12, 34, 27, 15, 28, 20, 18, 30, 13, 21, 25, 36, 9, 5, 26, 40, 33, 24, 2, 48, 29, 7, 51, 38, 32, 17, 31, 49, 61, 39, 42, 46, 35, 23, 37, 47, 44, 41, 50, 56, 63, 55, 57, 11, 92, 69, 52, 54, 43, 58, 73, 65, 76, 59, 70, 67, 64, 53, 88, 71, 68, 80, 75, 62, 81, 60, 93, 74, 78, 83, 82, 87, 89, 45, 97, 66, 90, 95, 105, 99, 86, 77, 115, 84, 100, 104, 107, 79, 111, 106, 116, 91, 102, 85, 98, 114, 120, 113, 103, 96, 109, 72, 118, 123, 117, 129, 121, 125, 133, 126, 130, 110, 131, 122, 137, 128, 124, 112, 135, 149, 134, 147, 140, 139, 145, 142, 138, 143, 132, 144, 150, 94, 146, 148, 136, 127, 108, 141, 119, 101]);
% time elapsed: 787.33 s
----------
%%%mzn-stat: initTime=0.070192884
%%%mzn-stat: objective=323
%%%mzn-stat: nodes=583879
%%%mzn-stat: restarts=0
%%%mzn-stat: peakDepth=3445
%%%mzn-stat: solveTime=1470.515653779
%%%mzn-stat: variables=4390
%%%mzn-stat: propagators=3889
%%%mzn-stat: failures=317369
%%%mzn-stat: propagations=11272020
%%%mzn-stat: nogoods=317369
%%%mzn-stat: numAtomicConstraintsPropagated=0
%%%mzn-stat: allDifferentNumber1PropagationsTotal=1734626
%%%mzn-stat: allDifferentNumber1PropagationsThatFoundConflict=5801
%%%mzn-stat: allDifferentNumber1PropagationsThatPruned=1024969
%%%mzn-stat: allDifferentNumber1TotalValuesPruned=3495326
%%%mzn-stat: allDifferentNumber1TotalHallSetSizeConflict=52571
%%%mzn-stat: allDifferentNumber1NumberOfConflicts=5801
%%%mzn-stat: allDifferentNumber1MaxHallSetSizeConflict=25
%%%mzn-stat: allDifferentNumber1TotalPruningHallSetSize=10408343
%%%mzn-stat: allDifferentNumber1NumberOfPruningExplanations=3495326
%%%mzn-stat: allDifferentNumber1MaxPruningHallSetSize=40
%%%mzn-stat: allDifferentNumber1TotalFixedEdgesAtConflict=745861
%%%mzn-stat: allDifferentNumber1TotalVarsInvolvedInPruning=2977212
%%%mzn-stat: allDifferentNumber1MaxValuesPrunedFromSingleVar=7
%%%mzn-stat: allDifferentNumber1TotalSccSizeAtPruning=4621453
%%%mzn-stat: allDifferentNumber1NumberOfSccPruningCalls=1024969
%%%mzn-stat: circuitNumber2PropagationsThatFoundConflict=290566
%%%mzn-stat: circuitNumber2TotalFixedEdgesAtConflict=41767832
%%%mzn-stat: circuitNumber2NumberOfConflicts=290566
%%%mzn-stat: circuitNumber2PropagationsThatPruned=108982
%%%mzn-stat: circuitNumber2PropagationsTotal=1006514
%%%mzn-stat: AverageConflictSize=107.96600487130122
%%%mzn-stat: NumUnitNogoodsLearned=0
%%%mzn-stat: AverageLearnedNogoodLength=113.23588945360133
%%%mzn-stat: AverageBacktrackAmount=0
%%%mzn-stat: AverageLbd=102.60071714628712
%%%mzn-stat: 2AutonomousSearchNumBackupCalled=13049
%%%mzn-stat: 2AutonomousSearchNumPredicatesRemoved=0
%%%mzn-stat: 2AutonomousSearchNumCalls=13053
%%%mzn-stat: 2AutonomousSearchNumPredicatesAdded=8707
%%%mzn-stat: 2AutonomousSearchAverageSizeOfHeap=0.9099057687887842
%%%mzn-stat: 2AutonomousSearchNumAssignedPredicatesEncountered=11877
%%%mzn-stat-end
maxleg = 323;
succ = array1d(1..150,[3, 8, 6, 1, 4, 22, 19, 10, 16, 14, 12, 34, 27, 15, 28, 20, 18, 30, 32, 21, 25, 36, 9, 5, 26, 40, 7, 24, 2, 48, 29, 35, 51, 13, 43, 17, 31, 11, 61, 39, 42, 46, 59, 23, 37, 47, 44, 41, 38, 49, 56, 55, 57, 58, 92, 50, 52, 60, 64, 76, 73, 54, 69, 67, 62, 33, 88, 53, 94, 65, 68, 70, 75, 71, 81, 63, 93, 74, 78, 72, 82, 87, 80, 45, 97, 66, 90, 95, 83, 99, 86, 77, 115, 84, 100, 104, 89, 79, 111, 106, 116, 91, 102, 85, 98, 114, 105, 113, 103, 96, 123, 128, 142, 131, 101, 109, 121, 108, 112, 107, 130, 110, 129, 127, 137, 120, 138, 126, 135, 149, 134, 147, 117, 139, 133, 124, 143, 125, 132, 119, 144, 145, 146, 148, 136, 122, 118, 140, 150, 141]);
% time elapsed: 1475.80 s
----------
%%%mzn-stat: initTime=0.070192884
%%%mzn-stat: objective=319
%%%mzn-stat: nodes=594995
%%%mzn-stat: restarts=0
%%%mzn-stat: peakDepth=3445
%%%mzn-stat: solveTime=1494.561689146
%%%mzn-stat: variables=4390
%%%mzn-stat: propagators=3889
%%%mzn-stat: failures=321302
%%%mzn-stat: propagations=11422690
%%%mzn-stat: nogoods=321302
%%%mzn-stat: numAtomicConstraintsPropagated=0
%%%mzn-stat: allDifferentNumber1PropagationsTotal=1757247
%%%mzn-stat: allDifferentNumber1PropagationsThatFoundConflict=5801
%%%mzn-stat: allDifferentNumber1PropagationsThatPruned=1037416
%%%mzn-stat: allDifferentNumber1TotalValuesPruned=3532358
%%%mzn-stat: allDifferentNumber1TotalHallSetSizeConflict=52571
%%%mzn-stat: allDifferentNumber1NumberOfConflicts=5801
%%%mzn-stat: allDifferentNumber1MaxHallSetSizeConflict=25
%%%mzn-stat: allDifferentNumber1TotalPruningHallSetSize=10464244
%%%mzn-stat: allDifferentNumber1NumberOfPruningExplanations=3532358
%%%mzn-stat: allDifferentNumber1MaxPruningHallSetSize=40
%%%mzn-stat: allDifferentNumber1TotalFixedEdgesAtConflict=745861
%%%mzn-stat: allDifferentNumber1TotalVarsInvolvedInPruning=3012974
%%%mzn-stat: allDifferentNumber1MaxValuesPrunedFromSingleVar=7
%%%mzn-stat: allDifferentNumber1TotalSccSizeAtPruning=4647092
%%%mzn-stat: allDifferentNumber1NumberOfSccPruningCalls=1037416
%%%mzn-stat: circuitNumber2PropagationsThatFoundConflict=294499
%%%mzn-stat: circuitNumber2TotalFixedEdgesAtConflict=42338337
%%%mzn-stat: circuitNumber2NumberOfConflicts=294499
%%%mzn-stat: circuitNumber2PropagationsThatPruned=110987
%%%mzn-stat: circuitNumber2PropagationsTotal=1020502
%%%mzn-stat: AverageConflictSize=108.35503669444945
%%%mzn-stat: NumUnitNogoodsLearned=0
%%%mzn-stat: AverageLearnedNogoodLength=113.49123877224542
%%%mzn-stat: AverageBacktrackAmount=0
%%%mzn-stat: AverageLbd=102.83592694723345
%%%mzn-stat: 2AutonomousSearchNumBackupCalled=16244
%%%mzn-stat: 2AutonomousSearchNumPredicatesRemoved=0
%%%mzn-stat: 2AutonomousSearchNumCalls=16249
%%%mzn-stat: 2AutonomousSearchNumPredicatesAdded=9524
%%%mzn-stat: 2AutonomousSearchAverageSizeOfHeap=0.9299649209182104
%%%mzn-stat: 2AutonomousSearchNumAssignedPredicatesEncountered=15111
%%%mzn-stat-end
maxleg = 319;
succ = array1d(1..150,[3, 8, 6, 1, 4, 22, 19, 10, 16, 14, 12, 34, 27, 15, 28, 20, 18, 30, 32, 21, 25, 36, 9, 5, 26, 40, 7, 24, 2, 48, 29, 35, 51, 13, 43, 17, 31, 11, 61, 39, 42, 46, 59, 23, 37, 47, 44, 41, 38, 49, 56, 55, 57, 58, 92, 50, 52, 60, 64, 76, 73, 54, 69, 67, 62, 33, 88, 53, 94, 65, 68, 70, 75, 71, 81, 63, 93, 74, 78, 72, 82, 87, 80, 45, 97, 66, 90, 95, 83, 99, 86, 77, 115, 84, 100, 104, 89, 79, 111, 106, 116, 91, 102, 85, 107, 114, 120, 113, 103, 96, 109, 98, 118, 123, 117, 129, 121, 125, 133, 126, 130, 105, 131, 110, 137, 128, 122, 112, 135, 149, 134, 147, 140, 139, 145, 124, 138, 143, 132, 144, 150, 136, 146, 148, 142, 127, 108, 141, 119, 101]);
% time elapsed: 1499.89 s
----------
